(declare-fun c () String)
(declare-fun g () String)
(declare-fun b () String)
(declare-fun d () String)
(declare-fun a () String)
(assert (= (str.++ d d) "gf"))
(assert (= (str.++ "bc" a "e") (str.++ a b "ag")))
(assert (= (str.++ "d" c "h" g) (str.++ c "fbcgg")))

(check-sat)
